NAME: instance_1657
TYPE: TSP
DIMENSION: 20
EDGE_WEIGHT_TYPE: EUC_2D
NODE_COORD_SECTION
0 22.95 39.39
1 91.42 9.66
2 14.48 69.46
3 50.04 48.29
4 67.03 65.33
5 6.54 90.17
6 50.60 11.83
7 83.09 68.59
8 6.33 47.49
9 74.83 75.32
10 53.62 63.05
11 3.17 11.66
12 51.88 34.49
13 67.48 99.57
14 48.24 72.75
15 75.44 65.12
16 82.22 94.93
17 10.34 60.01
18 73.84 7.84
19 1.93 95.18
EOF
